INPUT_PARAMETERS
#Parameters (1.General)
suffix              Al24
calculation         cell-relax
pseudo_dir          ./
ntype               1
nbands              200
symmetry            1
kpar                1

#Parameters (2.Iteration)
ecutwfc             80
scf_thr             1e-7
scf_nmax            100

#Parameters (3.Basis)
basis_type          pw
gamma_only          0

#Parameters (4.Smearing)
smearing_method     gaussian
smearing_sigma      0.01

#Parameters (5.Mixing)
mixing_type         pulay
mixing_beta         0.3
#Parameters (6.Relaxation)
relax_method        cg
relax_nmax          500
force_thr_ev        0.01
stress_thr          1
cal_force           1
cal_stress          1
out_stru            1