ATOMIC_SPECIES
Al 26.982 Al_ONCV_PBE-1.0.upf upf201

LATTICE_CONSTANT
1.8897261246257702

LATTICE_VECTORS
4.0497262667161085 0 0
0 8.099452533432217 0
0 0 12.149178800148325 

ATOMIC_POSITIONS
Cartesian    # Cartesian(Unit is LATTICE_CONSTANT)
Al
0.0
24
0.000000000000 0.000000000000 0.000000000000 1 1 1
0.000000000000 -0.000000000000 4.049726266716 1 1 1
0.000000000000 -0.000000000000 8.099452533432 1 1 1
0.000000000000 4.049726266716 -0.000000000000 1 1 1
0.000000000000 4.049726266716 4.049726266716 1 1 1
0.000000000000 4.049726266716 8.099452533432 1 1 1
2.024863133358 2.024863133358 0.000000000000 1 1 1
2.024863133358 2.024863133358 4.049726266716 1 1 1
2.024863133358 2.024863133358 8.099452533432 1 1 1
2.024863133358 6.074589400074 -0.000000000000 1 1 1
2.024863133358 6.074589400074 4.049726266716 1 1 1
2.024863133358 6.074589400074 8.099452533432 1 1 1
2.024863133358 -0.000000000000 2.024863133358 1 1 1
2.024863133358 -0.000000000000 6.074589400074 1 1 1
2.024863133358 -0.000000000000 10.124315666790 1 1 1
2.024863133358 4.049726266716 2.024863133358 1 1 1
2.024863133358 4.049726266716 6.074589400074 1 1 1
2.024863133358 4.049726266716 10.124315666790 1 1 1
0.000000000000 2.024863133358 2.024863133358 1 1 1
0.000000000000 2.024863133358 6.074589400074 1 1 1
0.000000000000 2.024863133358 10.124315666790 1 1 1
0.000000000000 6.074589400074 2.024863133358 1 1 1
0.000000000000 6.074589400074 6.074589400074 1 1 1
0.000000000000 6.074589400074 10.124315666790 1 1 1